\ Model prob_5
\ LP format - for model browsing. Use MPS format to capture full model detail.
Minimize
  6 Chicken + 2 Oats + 9 Tofu + 3 Rice + 7 Beef + 9 Salmon
Subject To
 R0: 14 Chicken + 11 Oats + 8 Tofu + Rice + 16 Beef + 19 Salmon >= 70
 R1: Chicken + 6 Oats + 12 Tofu + 17 Rice + 11 Beef + 13 Salmon >= 117
 R2: 164 Chicken + 210 Oats + 98 Tofu + 92 Rice + 211 Beef + 211 Salmon
   >= 1837
Bounds
Generals
 Chicken Oats Tofu Rice Beef Salmon
End
